
Gurobi 9.1.2 (win64) logging started Fri Sep 24 01:58:39 2021

Changed value of parameter LogFile to ../results/logs/log_samuel_kroger_2021_09_24_01_58_38.csv_17_250.log
   Prev:   Default: 
Changed value of parameter method to 3
   Prev: -1  Min: -1  Max: 5  Default: -1
Gurobi Optimizer version 9.1.2 build v9.1.2rc0 (win64)
Thread count: 6 physical cores, 12 logical processors, using up to 12 threads
Optimize a model with 5125 rows, 8078 columns and 339771 nonzeros
Model fingerprint: 0x0e28d2e8
Variable types: 0 continuous, 8078 integer (8078 binary)
Coefficient statistics:
  Matrix range     [1e+00, 2e+01]
  Objective range  [1e+00, 1e+00]
  Bounds range     [1e+00, 1e+00]
  RHS range        [1e+00, 3e+02]
Found heuristic solution: objective 2061.0000000
Presolve removed 4155 rows and 6571 columns
Presolve time: 0.08s
Presolved: 970 rows, 1507 columns, 17213 nonzeros
Variable types: 0 continuous, 1507 integer (1423 binary)

Concurrent LP optimizer: primal simplex, dual simplex, and barrier
Showing barrier log only...

Root barrier log...

Ordering time: 0.00s

Barrier statistics:
 AA' NZ     : 1.712e+04
 Factor NZ  : 2.691e+04 (roughly 1 MByte of memory)
 Factor Ops : 1.061e+06 (less than 1 second per iteration)
 Threads    : 4

Barrier performed 0 iterations in 0.14 seconds
Barrier solve interrupted - model solved by another algorithm


Solved with dual simplex

Root relaxation: objective 2.547778e+03, 768 iterations, 0.03 seconds

    Nodes    |    Current Node    |     Objective Bounds      |     Work
 Expl Unexpl |  Obj  Depth IntInf | Incumbent    BestBd   Gap | It/Node Time

     0     0 2547.77825    0  107 2061.00000 2547.77825  23.6%     -    0s
H    0     0                    2500.0000000 2547.77825  1.91%     -    0s
H    0     0                    2504.0000000 2547.77825  1.75%     -    0s
H    0     0                    2507.0000000 2547.77825  1.63%     -    0s
H    0     0                    2509.0000000 2547.77825  1.55%     -    0s
H    0     0                    2511.0000000 2547.77825  1.46%     -    0s
     0     0 2542.57051    0  153 2511.00000 2542.57051  1.26%     -    0s
H    0     0                    2528.0000000 2542.57051  0.58%     -    0s
     0     0 2541.00815    0  170 2528.00000 2541.00815  0.51%     -    0s
     0     0 2540.95197    0  164 2528.00000 2540.95197  0.51%     -    0s
     0     0 2540.94787    0  161 2528.00000 2540.94787  0.51%     -    0s
H    0     0                    2531.0000000 2540.94787  0.39%     -    0s
     0     0 2537.54046    0  164 2531.00000 2537.54046  0.26%     -    0s
     0     0 2536.75102    0  131 2531.00000 2536.75102  0.23%     -    0s
     0     0 2536.61072    0  109 2531.00000 2536.61072  0.22%     -    0s
     0     0 2536.59150    0  113 2531.00000 2536.59150  0.22%     -    0s
     0     0 2536.57998    0  114 2531.00000 2536.57998  0.22%     -    0s
     0     0 2536.57991    0  115 2531.00000 2536.57991  0.22%     -    0s
H    0     0                    2532.0000000 2536.57991  0.18%     -    0s
     0     0 2535.60298    0  113 2532.00000 2535.60298  0.14%     -    0s
H    0     0                    2533.0000000 2535.60298  0.10%     -    0s
     0     0 2535.15270    0   88 2533.00000 2535.15270  0.08%     -    0s
     0     0 2534.91948    0   92 2533.00000 2534.91948  0.08%     -    0s
     0     0 2534.91112    0   90 2533.00000 2534.91112  0.08%     -    0s
     0     0 2534.90708    0   89 2533.00000 2534.90708  0.08%     -    0s
     0     0 2534.88874    0   61 2533.00000 2534.88874  0.07%     -    0s
     0     0 2534.88874    0   60 2533.00000 2534.88874  0.07%     -    0s
     0     0 2534.88874    0   58 2533.00000 2534.88874  0.07%     -    0s
     0     0 2534.88874    0   69 2533.00000 2534.88874  0.07%     -    0s
     0     0 2534.88874    0   49 2533.00000 2534.88874  0.07%     -    0s
     0     0 2534.88874    0   57 2533.00000 2534.88874  0.07%     -    0s
     0     0 2534.88874    0   54 2533.00000 2534.88874  0.07%     -    0s
     0     0 2534.88874    0   50 2533.00000 2534.88874  0.07%     -    0s
     0     0 2534.88874    0   50 2533.00000 2534.88874  0.07%     -    0s
     0     0 2534.69124    0   59 2533.00000 2534.69124  0.07%     -    0s
     0     0 2534.56145    0   46 2533.00000 2534.56145  0.06%     -    0s
     0     0 2534.50892    0   44 2533.00000 2534.50892  0.06%     -    0s
     0     0 2534.50457    0   44 2533.00000 2534.50457  0.06%     -    0s
     0     0 2534.50457    0   45 2533.00000 2534.50457  0.06%     -    0s
     0     0 2534.31280    0   46 2533.00000 2534.31280  0.05%     -    0s
     0     0 2534.31280    0   35 2533.00000 2534.31280  0.05%     -    0s
     0     0 2534.31280    0   38 2533.00000 2534.31280  0.05%     -    0s
     0     0 2534.31280    0   24 2533.00000 2534.31280  0.05%     -    0s
     0     0 2534.31280    0   26 2533.00000 2534.31280  0.05%     -    0s
     0     0 2534.31280    0   30 2533.00000 2534.31280  0.05%     -    0s
     0     0 2534.24939    0   24 2533.00000 2534.24939  0.05%     -    0s
     0     0 2534.06481    0   16 2533.00000 2534.06481  0.04%     -    0s
     0     0 2534.05273    0   17 2533.00000 2534.05273  0.04%     -    0s
     0     0     cutoff    0      2533.00000 2533.00000  0.00%     -    0s

Cutting planes:
  Gomory: 15
  Cover: 3
  Implied bound: 8
  MIR: 25
  StrongCG: 3
  GUB cover: 18
  RLT: 2

Explored 1 nodes (3335 simplex iterations) in 0.80 seconds
Thread count was 12 (of 12 available processors)

Solution count 10: 2533 2533 2532 ... 2504

Optimal solution found (tolerance 1.00e-04)
Best objective 2.533000000000e+03, best bound 2.533000000000e+03, gap 0.0000%
